!TPSS def2-SVP AIM

%SCF
    MaxIter 1000
END
* xyz 0 1
C	-1.3172	 0.0093	 0.0311
C	 0.1725	-0.0304	 0.0233
N	 0.9160	-0.9140	 0.6548
O	 2.1879	-0.6056	 0.3841
N	 2.1719	 0.5993	-0.5094
N	 0.9670	 0.8748	-0.6751
H	-1.6787	 0.9547	 0.4579
H	-1.7096	-0.0658	-0.9921
H	-1.7099	-0.8224	 0.6255
*
