! wB97M-V def2-TZVPD EnGrad RIJCOSX def2/J NoUseSym DIIS NOSOSCF NormalConv DEFGRID3 ALLPOP NONBO NONPA 
%scf Convergence Tight maxiter 300 end %elprop Dipole true Quadrupole true end %output Print[P_ReducedOrbPopMO_L] 1 Print[P_ReducedOrbPopMO_M] 1 Print[P_BondOrder_L] 1 Print[P_BondOrder_M] 1 Print[P_Fockian] 1 Print[P_OrbEn] 2 end %basis GTOName "def2-tzvpd.bas" end %scf THRESH 1e-12 TCUT 1e-13 end %maxcore 2035.1999998092651 
*xyz 2 2 
Ir   0.0 0.0 0.0
C   -0.9712 2.8031 3.634
C   -0.1499 1.9141 4.5344
C   0.0729 2.3428 5.857
C   0.8261 1.5757 6.743
C   1.3691 0.371 6.3202
C   1.1579 -0.0694 5.0117
C   0.3955 0.6821 4.0948
P   0.1163 0.0845 2.3875
C   1.5906 -0.9282 2.0238
C   2.7128 -0.1485 1.6412
C   3.9487 -0.7156 1.3272
C   4.1008 -2.0903 1.3771
C   3.0197 -2.8853 1.7483
C   1.7646 -2.3275 2.0856
C   0.6948 -3.2999 2.4971
C   -1.3779 -0.9649 2.4356
C   -1.9566 -1.2904 3.6859
C   -3.1187 -2.0593 3.8004
C   -3.756 -2.5194 2.6617
C   -3.2305 -2.2038 1.4126
C   -2.0558 -1.4298 1.2758
C   -1.6597 -1.2063 -0.1437
H   -1.2806 3.7195 4.1487
H   -1.883 2.2894 3.3133
H   -0.3873 3.1092 2.7599
H   -0.3415 3.2865 6.2049
H   0.9892 1.9218 7.76
H   1.959 -0.2327 7.0052
H   1.595 -1.0227 4.7249
H   2.6341 0.9381 1.5897
H   4.7829 -0.0795 1.0453
H   5.0563 -2.5452 1.1322
H   3.1638 -3.9642 1.7824
H   1.1032 -4.3077 2.6373
H   -0.0711 -3.3792 1.723
H   0.2609 -3.0185 3.459
H   -1.5089 -0.9549 4.618
H   -3.5201 -2.2894 4.7839
H   -4.6603 -3.116 2.7407
H   -3.7506 -2.57 0.5286
H   -2.4387 -0.6723 -0.7285
H   -1.4033 -2.164 -0.644
O   1.9641 0.1362 0.0
C   2.8645 -0.4528 -0.0
C   4.1597 0.0739 -0.0
C   5.2605 -0.779 0.0
C   5.0729 -2.1534 -0.0
C   3.7855 -2.6878 0.0
C   2.638 -1.8671 -0.0
C   1.3264 -2.583 0.0
N   0.4944 -1.9623 -0.0
C   -0.8594 -2.9268 0.0
C   -0.2979 -4.1804 0.0
N   1.0986 -3.9868 0.0
H   4.3279 1.1418 -0.0
H   6.2628 -0.37 -0.0
H   5.9315 -2.8133 0.0
H   3.7142 -3.7633 0.0
H   -1.9439 -2.7145 0.0
H   -0.7991 -5.1358 0.0
H   1.8064 -4.7366 0.0
C   1.8003 3.7796 1.3307
C   1.3044 2.309 1.287
N   0.636 1.9573 -0.0
C   1.6125 2.2089 -1.0999
C   2.1199 3.6757 -1.1367
N   1.4452 4.4478 -0.0
C   -0.0721 4.388 -0.1941
C   -0.5074 2.8977 -0.1871
H   2.8871 3.8455 1.4416
H   1.309 4.3574 2.1198
H   0.6131 2.13 2.1199
H   2.1502 1.6314 1.4578
H   1.1528 1.9555 -2.0633
H   2.4663 1.5279 -0.9949
H   1.8526 4.1816 -2.0696
H   3.1998 3.743 -0.9719
H   1.7625 5.4242 -0.0
H   -0.292 4.8776 -1.1479
H   -0.5221 4.9532 0.628
H   -1.0258 2.6625 -1.125
H   -1.2486 2.7357 0.6055
H   -1.3948 1.0138 0.0
*
%pal nprocs 20 end