! wB97M-V def2-TZVPD
*xyz 0 1
O   0.000  0.000  0.000
H   0.957  0.000  0.000
H  -0.240  0.927  0.000
*
%pal nprocs 4 end
