! wB97M-V def2-TZVPD
*xyz 0 1
C  0.000  0.000  0.000
C  1.540  0.000  0.000
H  -0.36  1.02  0.00
H  -0.36 -0.51  0.88
H  -0.36 -0.51 -0.88
H   1.90  1.02  0.00
H   1.90 -0.51  0.88
H   1.90 -0.51 -0.88
*
