!PBE0 RIJCOSX def2-TZVP def2/J AIM

%SCF
    MaxIter 1000
END
* xyz 0 1
C	 0.1669	 1.1737	 0.1883
C	-0.2707	-0.2666	 0.1860
O	 0.4922	-1.2050	 0.1930
C	-1.7738	-0.5219	 0.1846
N	-2.5829	 0.4481	 0.1869
O	-2.1745	-1.8262	 0.3000
C	-1.5627	-2.8407	-0.4151
O	-1.7518	-3.9765	-0.1281
H	 1.2558	 1.2173	 0.1663
H	-0.2591	 1.6995	-0.6708
H	-0.2186	 1.6802	 1.0780
H	-3.5507	 0.1185	 0.2127
H	-0.9814	-2.4762	-1.2702
*