!TPSS def2-SVP AIM

%SCF
    MaxIter 1000
END
* xyz 0 1
N	-0.1535	 1.3933	-0.0146
C	 0.0863	 0.0637	-0.0194
O	 1.2293	-0.4136	-0.0305
N	-1.0296	-0.7312	-0.0096
C	-0.9988	-2.1206	-0.0173
C	 0.0415	-3.0273	-0.0380
N	-0.6003	-4.2207	-0.0353
N	-1.9114	-4.0829	-0.0151
N	-2.1699	-2.8045	-0.0038
H	 0.6348	 2.0252	-0.0252
H	-1.0899	 1.7753	-0.0100
H	-1.9484	-0.3025	-0.0039
H	 1.1186	-2.9404	-0.0537
H	-0.1871	-5.1484	-0.0466
O	 0.9221	 0.0280	-0.0607
H	 0.6425	-0.6747	-0.6610
H	 1.8868	-0.0058	-0.0896
*
