!B3LYP def2-SVP AIM
%SCF
    MaxIter 1000
END
* xyz 0 1
C	-0.0475	-1.2481	-0.1083
C	-0.0637	-0.0401	-0.0304
C	-0.0622	 1.4168	 0.0589
C	-0.0884	 1.9867	 1.4963
N	 1.3781	 2.1987	 1.4450
C	 1.3447	 2.0792	-0.0214
C	 2.4279	 1.2907	-0.6196
N	 3.2718	 0.6579	-1.0951
H	-0.0413	-2.3223	-0.1734
H	-0.7920	 1.8434	-0.6360
H	-0.6627	 2.9202	 1.5460
H	-0.4217	 1.3039	 2.2839
H	 1.6717	 3.1213	 1.7539
H	 1.2933	 3.0396	-0.5528
O	 0.9221	 0.0280	-0.0607
H	 0.6425	-0.6747	-0.6610
H	 1.8868	-0.0058	-0.0896
*
