!B3LYP def2-SVP AIM
%SCF
    MaxIter 1000
END
* xyz 0 1
O	-0.0366	 1.4662	-0.1916
C	 0.0298	 0.0489	-0.1439
C	-1.3406	-0.5867	 0.0478
C	-1.3651	-2.1141	 0.0690
C	-2.5435	-2.4080	 0.9894
O	-2.5948	-1.2775	 1.9046
C	-1.9408	-0.2325	 1.3889
O	-1.8659	 0.8288	 1.9778
H	-0.4954	 1.7620	 0.6090
H	 0.4575	-0.2885	-1.0952
H	 0.7008	-0.2820	 0.6653
H	-2.0343	-0.1938	-0.7141
H	-1.5002	-2.5554	-0.9234
H	-0.4328	-2.4992	 0.5044
H	-3.4985	-2.4387	 0.4513
H	-2.4322	-3.3093	 1.5968
O	 0.9221	 0.0280	-0.0607
H	 0.6425	-0.6747	-0.6610
H	 1.8868	-0.0058	-0.0896
*
