!TPSS def2-SVP AIM

%SCF
    MaxIter 1000
END
* xyz 0 1
C	-1.4356	 0.3417	 0.3773
C	-0.1197	 0.0404	 0.2744
N	 0.8328	-0.2085	 1.2641
O	 1.9985	-0.4631	 0.5817
N	 1.8978	-0.4045	-0.7357
N	 0.6317	-0.1035	-0.9376
H	-1.8937	 0.4198	 1.3569
H	-2.0449	 0.5056	-0.5067
H	 0.3078	-0.0014	-1.8940
*
