!RI TPSS D3BJ def2/J def2-TZVP AIM

%SCF
    MaxIter 1000
END
* xyz -1 2
O	-3.7174	 2.6876	 0.0087
C	-2.5015	 2.7507	-0.1863
O	-1.7807	 3.6356	-0.6612
O	-1.8334	 1.5262	 0.2217
C	-0.4688	 1.5003	 0.1626
C	 0.0261	 0.0749	 0.0670
C	 1.5476	-0.0270	 0.0124
C	 2.0185	-1.4667	-0.1341
O	 1.7559	-2.2893	 0.9214
F	 0.0468	 2.0596	 1.3714
H	-0.0857	 2.1491	-0.6271
H	-0.4078	-0.3560	-0.8423
H	-0.3693	-0.4876	 0.9197
H	 1.9924	 0.3989	 0.9173
H	 1.9294	 0.5474	-0.8400
H	 3.1151	-1.5171	-0.2916
H	 1.6170	-1.9428	-1.0499
*
