!TPSS RIJCOSX D3BJ  def2-SVP AIM

%SCF
    MaxIter 1000
END
* xyz 0 1
C	 0.0183	 1.4177	 0.0178
N	-0.0025	-0.0250	 0.0748
N	-0.0909	-0.7720	-1.0823
N	-0.0948	-2.0349	-0.8130
C	-0.0074	-2.1612	 0.5542
C	 0.0490	-3.0267	 1.6395
N	 0.1336	-2.2058	 2.7181
N	 0.1393	-0.8656	 2.4566
C	 0.0520	-0.8783	 1.1290
H	 0.9456	 1.8086	 0.4476
H	-0.0456	 1.7025	-1.0326
H	-0.8311	 1.8389	 0.5640
H	 0.0377	-4.0988	 1.7438
H	 0.1916	-2.4932	 3.6816
*
