!RI TPSS D3BJ def2/J def2-TZVP AIM

%SCF
    MaxIter 1000
END
* xyz 0 1
Li	 0.6159	-0.1320	 0.0861
O	 2.1241	 0.9926	 0.2250
Li	 3.8059	-1.8252	-0.7815
O	 2.1277	-1.1479	-0.3879
O	-1.2571	 0.2744	 0.3278
C	-1.7090	 1.3825	 0.5359
O	 4.0607	-0.0494	-0.3075
C	 2.7951	-0.0203	-0.1458
H	-2.7915	 1.5303	 0.6583
H	-1.0589	 2.2675	 0.6083
*
