!TPSS def2-SVP AIM

%SCF
    MaxIter 1000
END
* xyz 0 1
C	-1.5850	-0.0647	 0.0086
C	-0.4764	-0.9540	 0.3456
N	 0.4188	-1.6573	 0.6139
O	 3.3180	 0.0154	-0.0055
N	 2.4044	 0.7381	-0.2455
N	 1.5299	 1.4392	-0.4788
H	-1.2040	 0.9498	-0.1663
H	-2.0906	-0.4140	-0.9014
H	-2.3151	-0.0364	 0.8282
*
