! wB97M-V def2-TZVPD
*xyz -2 3
Eu  0.000  0.000  0.000
Cl  2.500  0.000  0.000
Cl -2.500  0.000  0.000
Cl  0.000  2.500  0.000
Cl  0.000 -2.500  0.000
*
