! allpop def2-tzvpd def2/j defgrid3 diis engrad nbo normalconv nososcf nousesym rijcosx wb97m-v xyzfile 
%basis gtoname "def2-tzvpd.bas" end
%elprop dipole true quadrupole true end
%nbo nbokeylist = "$nbo npa nbo e2pert 0.1 $end" end
%output print[p_reducedorbpopmo_l] 1 print[p_reducedorbpopmo_m] 1 print[p_bondorder_l] 1 print[p_bondorder_m] 1 end
%pal nprocs 36 end
%scf convergence tight maxiter 300 end
%scf thresh 1e-12 tcut 1e-13 end 
*xyz 0 1 
C   5.150415 1.932116 1.172242
H   5.549404 1.080892 1.731851
O   3.996754 1.568362 0.448912
C   2.94129 1.066445 1.131898
C   2.852947 0.956915 2.516485
C   1.722768 0.408342 3.095797
C   0.67482 -0.051227 2.321649
C   0.767998 0.048498 0.939901
C   1.878622 0.621707 0.346584
H   1.960669 0.704962 -0.725958
N   -0.289601 -0.434896 0.117748
C   -0.525938 -1.741137 -0.088591
O   -1.491742 -2.145357 -0.720794
C   0.459857 -2.748505 0.510864
N   1.838786 -2.416802 0.336128
C   2.494701 -2.073373 -0.805736
C   2.116985 -1.942304 -2.13625
C   3.096651 -1.528384 -3.009375
C   4.405492 -1.255634 -2.583486
C   4.788351 -1.387925 -1.270268
C   3.813421 -1.803629 -0.364675
N   3.842313 -2.009606 0.98316
N   2.689121 -2.360664 1.370566
H   5.792237 -1.178239 -0.939951
H   5.127406 -0.931125 -3.317926
H   2.855581 -1.406546 -4.054958
H   1.108528 -2.150129 -2.460033
H   0.284747 -2.83118 1.587533
H   0.234916 -3.714961 0.043113
C   -1.229512 0.539204 -0.461914
C   -0.559395 1.834399 -0.815589
C   -0.315861 2.14635 -2.147901
C   0.32916 3.331015 -2.460099
C   0.705545 4.163538 -1.417817
N   0.467344 3.885605 -0.148268
C   -0.146772 2.75597 0.147403
H   -0.328612 2.585181 1.197745
H   1.21816 5.09815 -1.604122
H   0.534409 3.598152 -3.485221
H   -0.623414 1.46642 -2.931427
C   -2.413129 0.726151 0.521612
O   -2.541012 1.683538 1.250935
N   -3.267228 -0.310613 0.481069
H   -3.065727 -1.104839 -0.11643
C   -4.462639 -0.362654 1.303325
C   -5.674357 -0.594304 0.465155
C   -6.37036 -1.733528 0.181185
C   -7.406383 -1.354042 -0.706377
C   -7.25723 -0.016042 -0.898579
O   -6.213864 0.450932 -0.196867
H   -7.809468 0.690098 -1.486123
H   -8.152191 -1.989929 -1.136614
H   -6.174179 -2.715629 0.559812
H   -4.528674 0.602198 1.814188
H   -4.374448 -1.167093 2.041034
H   -1.623097 0.072069 -1.374182
H   -0.206468 -0.478562 2.774339
H   1.664034 0.332893 4.170371
H   3.658537 1.289246 3.149811
H   4.949398 2.763009 1.855274
H   5.876047 2.248919 0.425014
*
%maxcore 5077.333333015442