!TPSS def2-SVP AIM

%SCF
    MaxIter 1000
END
* xyz 0 1
C	-1.0083	-0.0208	-0.0635
C	 0.4864	 0.0579	 0.0039
N	 1.2962	-0.9980	 0.5235
O	 0.6135	-1.9570	 0.8959
N	 1.8288	 1.9711	-0.7610
N	 1.1425	 1.1130	-0.4232
H	-1.4520	 0.9323	-0.3700
H	-1.3126	-0.8061	-0.7705
H	-1.3948	-0.3076	 0.9241
*
