! wB97M-V def2-TZVPD
*xyz 2 5
Fe  0.000  0.000  0.000
O   1.800  0.000  0.000
O  -1.800  0.000  0.000
*
