!TPSS RIJCOSX D3BJ  def2-SVP AIM

%SCF
    MaxIter 1000
END
* xyz 0 1
C	 0.0870	 1.5478	-0.2106
C	 0.0347	 0.0467	-0.0352
C	 0.5611	-0.9364	-1.1143
C	 0.0495	-1.8417	 0.0133
C	 0.6761	-0.8681	 1.0775
C	-0.2130	-0.9263	 2.3158
C	-1.1956	 0.1903	 2.5794
C	-1.5841	-0.9533	 1.6719
C	-1.2007	-0.9052	 0.1961
H	 1.1247	 1.8720	-0.3517
H	-0.4718	 1.8389	-1.1078
H	-0.3224	 2.1129	 0.6289
H	 0.0100	-0.9579	-2.0600
H	 1.6410	-0.9256	-1.2940
H	 0.0497	-2.9325	 0.0587
H	 1.7608	-0.8491	 1.2054
H	 0.0593	-1.5945	 3.1254
H	-1.6574	 0.1915	 3.5625
H	-1.0287	 1.1820	 2.1831
H	-2.3592	-1.6418	 1.9899
H	-1.9920	-0.9235	-0.5569
*
