!RI TPSS D3BJ def2/J def2-TZVP AIM

%SCF
    MaxIter 1000
END
* xyz 0 2
C	-0.0542	 0.0171	 0.0382
C	 1.3937	-0.2296	 0.1033
C	 2.2677	-1.1615	-0.1766
H	-0.2791	 0.8780	-0.5977
H	-0.5707	-0.8610	-0.3757
H	-0.4647	 0.2192	 1.0315
H	 3.3346	-1.0344	-0.0044
H	 1.9497	-2.1186	-0.6031
*
